p cnf 12 50 
-7 5 10 0
-6 -8 -7 0
-6 -10 -7 0
5 -10 8 0
-1 -5 10 0
-5 6 9 0
-1 7 -3 0
-3 -12 5 0
10 5 -8 0
-6 4 3 0
8 -11 5 0
-11 4 7 0
-9 7 -4 0
-3 12 5 0
-11 -8 9 0
-10 1 -6 0
-5 6 -1 0
-7 -3 -11 0
6 5 -8 0
2 -1 5 0
11 -1 2 0
-10 -7 12 0
-9 -3 -6 0
6 -5 -9 0
10 -4 -1 0
-2 3 -9 0
-1 -2 -6 0
-7 5 9 0
3 7 2 0
4 5 -1 0
-11 10 7 0
5 7 6 0
-7 6 -11 0
2 12 -3 0
2 -12 3 0
-7 4 9 0
-8 7 -1 0
2 5 -1 0
11 -8 -10 0
-11 -1 -8 0
2 -6 1 0
12 5 -3 0
10 1 11 0
-11 8 6 0
6 11 3 0
1 -8 -6 0
-6 -4 -3 0
-6 4 -8 0
12 -10 -9 0
-12 -10 3 0
